53510
17, 53, 34, 54, 47, 30, 4, 18, 12, 9, 14, 2, 45, 11, 42, 33, 1, 27, 31, 25, 52, 15, 36, 46, 39, 16, 10, 22, 29, 21, 23, 49, 26, 55, 28, 6, 3, 43, 13, 41, 32, 24, 35, 5, 37, 51, 40, 7, 20, 50, 38, 8, 44, 19, 48
